92 14 47 72 95 28 29 67 61 6 86 49 50 66 10 97 55 89 48 77 25 
65 36 39 45 5 2 69 82 98 30 90 99 8 56 34 32 96 54 68 4 1 60 58 
63 59 15 44 88 12 73 85 84 22 46 3 24 13 74 91 100 70 80 93 
33 83 52 23 31 76 51 19 18 57 9 87 20 26 43 35 17 
42 27 62 11 75 16 53 7 79 78 37 
64 21 71 38 40 81 94 41 

